(set-logic ALL)
; benchmark generated from python API
(set-info :status unknown)
(declare-datatypes ((Proc 0)) (((foo_func) (coinbase))))
(declare-fun w_0 () Int)
(declare-fun success_1 () Bool)
(declare-fun t_success_0_0 () Bool)
(declare-fun aw_0_2 () Int)
(declare-fun aw_1_2 () Int)
(declare-fun aw_0_1 () Int)
(declare-fun aw_1_1 () Int)
(declare-fun aw_0_0 () Int)
(declare-fun aw_1_0 () Int)
(declare-fun t_w_0_0 () Int)
(declare-fun w_1 () Int)
(declare-fun err_1 () Bool)
(declare-fun xn_0 () Int)
(declare-fun xa_0 () Int)
(declare-fun success_2 () Bool)
(declare-fun t_success_1_0 () Bool)
(declare-fun aw_2_2 () Int)
(declare-fun aw_2_1 () Int)
(declare-fun aw_2_0 () Int)
(declare-fun t_w_1_0 () Int)
(declare-fun w_2 () Int)
(declare-fun err_2 () Bool)
(declare-fun xn_1 () Int)
(declare-fun xa_1 () Int)
(declare-fun f_1 () Proc)
(declare-fun block_num_1 () Int)
(declare-fun block_num_2 () Int)
(declare-fun success_3 () Bool)
(declare-fun t_success_2_0 () Bool)
(declare-fun aw_3_2 () Int)
(declare-fun aw_3_1 () Int)
(declare-fun aw_3_0 () Int)
(declare-fun t_w_2_0 () Int)
(declare-fun w_3 () Int)
(declare-fun err_3 () Bool)
(declare-fun xn_2 () Int)
(declare-fun xa_2 () Int)
(declare-fun f_2 () Proc)
(declare-fun block_num_3 () Int)
(declare-fun success_4 () Bool)
(declare-fun t_success_3_0 () Bool)
(declare-fun aw_4_2 () Int)
(declare-fun aw_4_1 () Int)
(declare-fun aw_4_0 () Int)
(declare-fun t_w_3_0 () Int)
(declare-fun w_4 () Int)
(declare-fun err_4 () Bool)
(declare-fun xn_3 () Int)
(declare-fun xa_3 () Int)
(declare-fun f_3 () Proc)
(declare-fun block_num_4 () Int)
(assert
 (>= w_0 0))
(assert
 (let (($x1605 (= t_success_0_0 success_1)))
 (let (($x1603 (= aw_1_2 aw_0_2)))
 (let (($x1602 (= aw_1_1 aw_0_1)))
 (let (($x1601 (= aw_1_0 aw_0_0)))
 (let (($x1600 (= w_1 t_w_0_0)))
 (let (($x1607 (and (> xn_0 0) (= err_1 false) true (= t_success_0_0 false) (and $x1600 (and $x1601 $x1602 $x1603) $x1605))))
 (and (and (>= xa_0 0) (<= xa_0 2) (>= xn_0 0)) (and (>= aw_0_0 0) (>= aw_0_1 0) (>= aw_0_2 0)) (and (= t_w_0_0 (+ w_0 xn_0)) $x1607)))))))))
(assert
 (let (($x1651 (= t_success_1_0 success_2)))
 (let (($x1634 (= aw_2_2 aw_1_2)))
 (let (($x1633 (= aw_2_1 aw_1_1)))
 (let (($x1632 (= aw_2_0 aw_1_0)))
 (let (($x1635 (and $x1632 $x1633 $x1634)))
 (let (($x1631 (= w_2 t_w_1_0)))
 (let (($x1628 (= err_2 false)))
 (let (($x1650 (ite (and (>= t_w_1_0 10)) (and (= t_success_1_0 true) true) (and true true (= t_success_1_0 success_1)))))
 (let (($x1630 (= t_w_1_0 (+ w_1 xn_1))))
 (let (($x1642 (<= xa_1 2)))
 (let (($x1641 (>= xa_1 1)))
 (let (($x1655 (and $x1641 $x1642 (and $x1630 (and $x1650 $x1628 true (and $x1631 $x1635 $x1651))))))
 (let (($x1627 (= xa_1 0)))
 (let (($x1639 (and $x1627 (and $x1628 $x1630 (and $x1631 $x1635 (= success_1 success_2))))))
 (let (($x1626 (= f_1 coinbase)))
 (and (and (>= xn_1 0) (>= w_2 0)) (and (>= aw_1_0 0) (>= aw_1_1 0) (>= aw_1_2 0)) (>= block_num_2 block_num_1) (ite $x1626 $x1639 $x1655))))))))))))))))))
(assert
 (let (($x1700 (= t_success_2_0 success_3)))
 (let (($x1685 (= aw_3_2 aw_2_2)))
 (let (($x1684 (= aw_3_1 aw_2_1)))
 (let (($x1683 (= aw_3_0 aw_2_0)))
 (let (($x1686 (and $x1683 $x1684 $x1685)))
 (let (($x1682 (= w_3 t_w_2_0)))
 (let (($x1679 (= err_3 false)))
 (let (($x1699 (ite (and (>= t_w_2_0 10)) (and (= t_success_2_0 true) true) (and true true (= t_success_2_0 success_2)))))
 (let (($x1681 (= t_w_2_0 (+ w_2 xn_2))))
 (let (($x1692 (<= xa_2 2)))
 (let (($x1691 (>= xa_2 1)))
 (let (($x1704 (and $x1691 $x1692 (and $x1681 (and $x1699 $x1679 true (and $x1682 $x1686 $x1700))))))
 (let (($x1678 (= xa_2 0)))
 (let (($x1690 (and $x1678 (and $x1679 $x1681 (and $x1682 $x1686 (= success_2 success_3))))))
 (let (($x1677 (= f_2 coinbase)))
 (and (and (>= xn_2 0) (>= w_3 0)) (and (>= aw_2_0 0) (>= aw_2_1 0) (>= aw_2_2 0)) (>= block_num_3 block_num_2) (ite $x1677 $x1690 $x1704))))))))))))))))))
(assert
 (let (($x1749 (= t_success_3_0 success_4)))
 (let (($x1734 (= aw_4_2 aw_3_2)))
 (let (($x1733 (= aw_4_1 aw_3_1)))
 (let (($x1732 (= aw_4_0 aw_3_0)))
 (let (($x1735 (and $x1732 $x1733 $x1734)))
 (let (($x1731 (= w_4 t_w_3_0)))
 (let (($x1728 (= err_4 false)))
 (let (($x1748 (ite (and (>= t_w_3_0 10)) (and (= t_success_3_0 true) true) (and true true (= t_success_3_0 success_3)))))
 (let (($x1730 (= t_w_3_0 (+ w_3 xn_3))))
 (let (($x1741 (<= xa_3 2)))
 (let (($x1740 (>= xa_3 1)))
 (let (($x1753 (and $x1740 $x1741 (and $x1730 (and $x1748 $x1728 true (and $x1731 $x1735 $x1749))))))
 (let (($x1727 (= xa_3 0)))
 (let (($x1739 (and $x1727 (and $x1728 $x1730 (and $x1731 $x1735 (= success_3 success_4))))))
 (let (($x1726 (= f_3 coinbase)))
 (and (and (>= xn_3 0) (>= w_4 0)) (and (>= aw_3_0 0) (>= aw_3_1 0) (>= aw_3_2 0)) (>= block_num_4 block_num_3) (ite $x1726 $x1739 $x1753))))))))))))))))))
(assert
 (let (($x1794 (exists ((xa_q Int) )(let (($x1789 (forall ((xn_q0 Int) (f_q0 Proc) (wq0 Int) (awq0_0 Int) (awq0_1 Int) (awq0_2 Int) (t_wq0_0 Int) (t_wq0_1 Int) (t_wq0_2 Int) (t_wq0_3 Int) (t_wq0_4 Int) (t_wq0_5 Int) (t_wq0_6 Int) (t_wq0_7 Int) (t_wq0_8 Int) (t_wq0_9 Int) (t_wq0_10 Int) (t_wq0_11 Int) (t_wq0_12 Int) (t_wq0_13 Int) (t_wq0_14 Int) (t_wq0_15 Int) (t_wq0_16 Int) (t_wq0_17 Int) (t_wq0_18 Int) (t_wq0_19 Int) (t_wq0_20 Int) (t_wq0_21 Int) (t_wq0_22 Int) (t_wq0_23 Int) (t_wq0_24 Int) (t_wq0_25 Int) (t_wq0_26 Int) (t_wq0_27 Int) (t_wq0_28 Int) (t_wq0_29 Int) (t_wq0_30 Int) (t_wq0_31 Int) (t_wq0_32 Int) (t_wq0_33 Int) (t_wq0_34 Int) (t_wq0_35 Int) (t_wq0_36 Int) (t_wq0_37 Int) (t_wq0_38 Int) (t_wq0_39 Int) (t_wq0_40 Int) (t_wq0_41 Int) (t_wq0_42 Int) (t_wq0_43 Int) (t_wq0_44 Int) (t_wq0_45 Int) (t_wq0_46 Int) (t_wq0_47 Int) (t_wq0_48 Int) (t_wq0_49 Int) (t_awq0_0_0 Int) (t_awq0_0_1 Int) (t_awq0_0_2 Int) (t_awq0_1_0 Int) (t_awq0_1_1 Int) (t_awq0_1_2 Int) (t_awq0_2_0 Int) (t_awq0_2_1 Int) (t_awq0_2_2 Int) (t_awq0_3_0 Int) (t_awq0_3_1 Int) (t_awq0_3_2 Int) (t_awq0_4_0 Int) (t_awq0_4_1 Int) (t_awq0_4_2 Int) (t_awq0_5_0 Int) (t_awq0_5_1 Int) (t_awq0_5_2 Int) (t_awq0_6_0 Int) (t_awq0_6_1 Int) (t_awq0_6_2 Int) (t_awq0_7_0 Int) (t_awq0_7_1 Int) (t_awq0_7_2 Int) (t_awq0_8_0 Int) (t_awq0_8_1 Int) (t_awq0_8_2 Int) (t_awq0_9_0 Int) (t_awq0_9_1 Int) (t_awq0_9_2 Int) (t_awq0_10_0 Int) (t_awq0_10_1 Int) (t_awq0_10_2 Int) (t_awq0_11_0 Int) (t_awq0_11_1 Int) (t_awq0_11_2 Int) (t_awq0_12_0 Int) (t_awq0_12_1 Int) (t_awq0_12_2 Int) (t_awq0_13_0 Int) (t_awq0_13_1 Int) (t_awq0_13_2 Int) (t_awq0_14_0 Int) (t_awq0_14_1 Int) (t_awq0_14_2 Int) (t_awq0_15_0 Int) (t_awq0_15_1 Int) (t_awq0_15_2 Int) (t_awq0_16_0 Int) (t_awq0_16_1 Int) (t_awq0_16_2 Int) (t_awq0_17_0 Int) (t_awq0_17_1 Int) (t_awq0_17_2 Int) (t_awq0_18_0 Int) (t_awq0_18_1 Int) (t_awq0_18_2 Int) (t_awq0_19_0 Int) (t_awq0_19_1 Int) (t_awq0_19_2 Int) (t_awq0_20_0 Int) (t_awq0_20_1 Int) (t_awq0_20_2 Int) (t_awq0_21_0 Int) (t_awq0_21_1 Int) (t_awq0_21_2 Int) (t_awq0_22_0 Int) (t_awq0_22_1 Int) (t_awq0_22_2 Int) (t_awq0_23_0 Int) (t_awq0_23_1 Int) (t_awq0_23_2 Int) (t_awq0_24_0 Int) (t_awq0_24_1 Int) (t_awq0_24_2 Int) (t_awq0_25_0 Int) (t_awq0_25_1 Int) (t_awq0_25_2 Int) (t_awq0_26_0 Int) (t_awq0_26_1 Int) (t_awq0_26_2 Int) (t_awq0_27_0 Int) (t_awq0_27_1 Int) (t_awq0_27_2 Int) (t_awq0_28_0 Int) (t_awq0_28_1 Int) (t_awq0_28_2 Int) (t_awq0_29_0 Int) (t_awq0_29_1 Int) (t_awq0_29_2 Int) (t_awq0_30_0 Int) (t_awq0_30_1 Int) (t_awq0_30_2 Int) (t_awq0_31_0 Int) (t_awq0_31_1 Int) (t_awq0_31_2 Int) (t_awq0_32_0 Int) (t_awq0_32_1 Int) (t_awq0_32_2 Int) (t_awq0_33_0 Int) (t_awq0_33_1 Int) (t_awq0_33_2 Int) (t_awq0_34_0 Int) (t_awq0_34_1 Int) (t_awq0_34_2 Int) (t_awq0_35_0 Int) (t_awq0_35_1 Int) (t_awq0_35_2 Int) (t_awq0_36_0 Int) (t_awq0_36_1 Int) (t_awq0_36_2 Int) (t_awq0_37_0 Int) (t_awq0_37_1 Int) (t_awq0_37_2 Int) (t_awq0_38_0 Int) (t_awq0_38_1 Int) (t_awq0_38_2 Int) (t_awq0_39_0 Int) (t_awq0_39_1 Int) (t_awq0_39_2 Int) (t_awq0_40_0 Int) (t_awq0_40_1 Int) (t_awq0_40_2 Int) (t_awq0_41_0 Int) (t_awq0_41_1 Int) (t_awq0_41_2 Int) (t_awq0_42_0 Int) (t_awq0_42_1 Int) (t_awq0_42_2 Int) (t_awq0_43_0 Int) (t_awq0_43_1 Int) (t_awq0_43_2 Int) (t_awq0_44_0 Int) (t_awq0_44_1 Int) (t_awq0_44_2 Int) (t_awq0_45_0 Int) (t_awq0_45_1 Int) (t_awq0_45_2 Int) (t_awq0_46_0 Int) (t_awq0_46_1 Int) (t_awq0_46_2 Int) (t_awq0_47_0 Int) (t_awq0_47_1 Int) (t_awq0_47_2 Int) (t_awq0_48_0 Int) (t_awq0_48_1 Int) (t_awq0_48_2 Int) (t_awq0_49_0 Int) (t_awq0_49_1 Int) (t_awq0_49_2 Int) (err_q0 Bool) (successq0 Bool) (t_successq0_0 Bool) (t_successq0_1 Bool) (t_successq0_2 Bool) (t_successq0_3 Bool) (t_successq0_4 Bool) (t_successq0_5 Bool) (t_successq0_6 Bool) (t_successq0_7 Bool) (t_successq0_8 Bool) (t_successq0_9 Bool) (t_successq0_10 Bool) (t_successq0_11 Bool) (t_successq0_12 Bool) (t_successq0_13 Bool) (t_successq0_14 Bool) (t_successq0_15 Bool) (t_successq0_16 Bool) (t_successq0_17 Bool) (t_successq0_18 Bool) (t_successq0_19 Bool) (t_successq0_20 Bool) (t_successq0_21 Bool) (t_successq0_22 Bool) (t_successq0_23 Bool) (t_successq0_24 Bool) (t_successq0_25 Bool) (t_successq0_26 Bool) (t_successq0_27 Bool) (t_successq0_28 Bool) (t_successq0_29 Bool) (t_successq0_30 Bool) (t_successq0_31 Bool) (t_successq0_32 Bool) (t_successq0_33 Bool) (t_successq0_34 Bool) (t_successq0_35 Bool) (t_successq0_36 Bool) (t_successq0_37 Bool) (t_successq0_38 Bool) (t_successq0_39 Bool) (t_successq0_40 Bool) (t_successq0_41 Bool) (t_successq0_42 Bool) (t_successq0_43 Bool) (t_successq0_44 Bool) (t_successq0_45 Bool) (t_successq0_46 Bool) (t_successq0_47 Bool) (t_successq0_48 Bool) (t_successq0_49 Bool) )(let (($x2073 (and (= awq0_0 aw_4_0) (= awq0_1 aw_4_1) (= awq0_2 aw_4_2))))
(let (($x2074 (= wq0 t_wq0_0)))
(let (($x2076 (= err_q0 false)))
(let (($x2083 (ite (and (>= t_wq0_0 10)) (and (= t_successq0_0 true) true) (and true true (= t_successq0_0 success_4)))))
(let (($x2086 (= t_wq0_0 (+ w_4 xn_q0))))
(let (($x1782 (and (>= xa_q 1) (<= xa_q 2) (and $x2086 (and $x2083 $x2076 true (and $x2074 $x2073 (= t_successq0_0 successq0)))))))
(let (($x1784 (and (= xa_q 0) (and $x2076 $x2086 (and $x2074 $x2073 (= success_4 successq0))))))
(let (($x1786 (and (and (>= xn_q0 0) (>= wq0 0)) (and (>= aw_4_0 0) (>= aw_4_1 0) (>= aw_4_2 0)) (>= block_num_4 block_num_4) (ite (= f_q0 coinbase) $x1784 $x1782))))
(or (not $x1786) (not successq0)))))))))))
))
(and (and (>= xa_q 1) (<= xa_q 2)) (> w_4 0) $x1789)))
))
(and $x1794)))
(check-sat)

(get-model)